nN = 10;
nR = 30;
nH = 1;

a = [[25, 16, 17, 24, 15, 24, 24, 17, 23, 16, 21, 18, 18, 18, 18, 20, 16, 15, 25, 15, 16, 23, 22, 18, 23, 18, 19, 20, 21, 19], [16, 17, 19, 18, 17, 23, 15, 25, 25, 16, 16, 23, 21, 23, 25, 19, 16, 18, 16, 21, 24, 15, 21, 19, 20, 16, 18, 25, 20, 22], [19, 19, 15, 25, 24, 25, 16, 23, 15, 20, 16, 19, 18, 20, 15, 17, 16, 17, 21, 20, 18, 19, 22, 20, 19, 21, 18, 20, 25, 17], [17, 21, 21, 21, 19, 20, 24, 15, 21, 15, 18, 23, 18, 16, 16, 18, 24, 16, 22, 16, 22, 19, 17, 17, 22, 19, 21, 16, 24, 17], [18, 23, 23, 17, 25, 21, 22, 17, 20, 24, 18, 25, 16, 15, 16, 18, 23, 17, 25, 17, 17, 23, 24, 23, 19, 16, 16, 22, 22, 19], [24, 18, 20, 18, 19, 16, 22, 18, 19, 23, 18, 23, 21, 24, 22, 25, 21, 18, 21, 16, 21, 22, 18, 22, 15, 19, 16, 22, 16, 17], [20, 21, 15, 24, 20, 19, 16, 24, 23, 24, 22, 20, 24, 18, 24, 20, 17, 23, 17, 22, 18, 21, 25, 17, 21, 18, 24, 21, 15, 25], [15, 23, 19, 21, 17, 16, 22, 23, 16, 15, 19, 21, 15, 18, 18, 21, 25, 15, 15, 15, 20, 21, 18, 19, 18, 21, 25, 23, 25, 21], [17, 25, 16, 24, 16, 22, 16, 15, 15, 17, 25, 17, 20, 21, 16, 16, 17, 17, 25, 21, 18, 17, 20, 19, 23, 18, 17, 20, 17, 17], [17, 21, 23, 22, 23, 25, 25, 22, 24, 18, 24, 22, 15, 24, 15, 16, 19, 22, 25, 19, 24, 17, 16, 17, 17, 25, 19, 16, 23, 22]];
c = [[[0, 0, 0, 0, 0, 0, 0, 0, 0, 0, 0, 0, 0, 0, 0, 0, 0, 0, 0, 0, 0, 0, 0, 0, 0, 0, 0, 0, 0, 0], [44, 43, 37, 43, 35, 34, 39, 38, 49, 46, 47, 35, 41, 34, 44, 44, 44, 42, 43, 49, 45, 31, 35, 39, 37, 32, 35, 31, 32, 46], [46, 42, 44, 49, 38, 40, 37, 47, 39, 48, 43, 41, 44, 38, 44, 34, 48, 30, 34, 42, 35, 35, 40, 46, 33, 41, 47, 34, 38, 47], [34, 46, 47, 39, 46, 41, 43, 44, 46, 40, 50, 46, 49, 42, 48, 48, 33, 39, 38, 41, 30, 49, 43, 39, 33, 49, 39, 43, 44, 43], [36, 39, 47, 48, 45, 48, 49, 42, 44, 42, 49, 37, 50, 49, 48, 34, 45, 30, 49, 45, 38, 40, 47, 50, 50, 37, 45, 34, 39, 37], [45, 34, 43, 40, 38, 38, 35, 41, 34, 37, 37, 37, 43, 46, 46, 42, 41, 37, 31, 39, 34, 46, 42, 48, 47, 39, 42, 44, 48, 44], [49, 44, 48, 34, 43, 36, 49, 44, 42, 41, 49, 49, 47, 37, 43, 46, 39, 42, 47, 43, 47, 49, 42, 38, 33, 50, 33, 44, 35, 38], [31, 47, 31, 40, 47, 37, 45, 37, 33, 32, 49, 34, 49, 36, 48, 37, 41, 46, 50, 35, 35, 48, 41, 33, 47, 40, 43, 50, 40, 34], [40, 35, 48, 46, 45, 48, 32, 40, 47, 33, 40, 48, 45, 48, 39, 50, 49, 38, 33, 45, 50, 40, 31, 44, 43, 32, 49, 40, 33, 31], [47, 50, 49, 34, 33, 45, 47, 34, 41, 42, 41, 37, 37, 44, 38, 37, 48, 33, 34, 48, 39, 47, 50, 34, 39, 37, 44, 48, 36, 47]], [[0, 0, 0, 0, 0, 0, 0, 0, 0, 0, 0, 0, 0, 0, 0, 0, 0, 0, 0, 0, 0, 0, 0, 0, 0, 0, 0, 0, 0, 0], [0, 0, 0, 0, 0, 0, 0, 0, 0, 0, 0, 0, 0, 0, 0, 0, 0, 0, 0, 0, 0, 0, 0, 0, 0, 0, 0, 0, 0, 0], [42, 43, 42, 41, 31, 30, 33, 49, 32, 38, 46, 50, 48, 30, 44, 39, 41, 34, 39, 45, 32, 50, 30, 43, 40, 41, 34, 33, 50, 39], [32, 33, 47, 31, 39, 50, 47, 46, 50, 37, 46, 39, 36, 50, 44, 48, 41, 30, 33, 37, 33, 46, 48, 37, 35, 38, 38, 40, 45, 50], [50, 40, 36, 33, 30, 42, 45, 34, 32, 31, 35, 41, 35, 31, 30, 47, 35, 37, 46, 39, 48, 30, 50, 45, 46, 34, 32, 40, 30, 49], [47, 46, 37, 41, 34, 47, 40, 33, 43, 36, 47, 38, 34, 35, 45, 42, 43, 43, 42, 43, 41, 41, 30, 32, 34, 45, 44, 38, 35, 34], [38, 40, 33, 40, 34, 50, 37, 36, 50, 40, 44, 46, 47, 38, 36, 45, 42, 41, 39, 50, 36, 43, 37, 44, 43, 30, 46, 45, 31, 41], [32, 38, 33, 39, 48, 44, 35, 37, 36, 41, 33, 45, 50, 45, 34, 47, 42, 32, 50, 43, 38, 49, 38, 50, 36, 32, 39, 30, 46, 49], [48, 42, 32, 37, 40, 47, 49, 41, 43, 39, 30, 44, 45, 39, 50, 38, 38, 31, 50, 39, 40, 35, 41, 49, 43, 41, 39, 44, 38, 32], [47, 45, 34, 33, 46, 38, 49, 46, 44, 37, 40, 35, 32, 30, 38, 43, 31, 42, 35, 43, 44, 31, 39, 48, 43, 49, 32, 48, 43, 32]], [[0, 0, 0, 0, 0, 0, 0, 0, 0, 0, 0, 0, 0, 0, 0, 0, 0, 0, 0, 0, 0, 0, 0, 0, 0, 0, 0, 0, 0, 0], [0, 0, 0, 0, 0, 0, 0, 0, 0, 0, 0, 0, 0, 0, 0, 0, 0, 0, 0, 0, 0, 0, 0, 0, 0, 0, 0, 0, 0, 0], [0, 0, 0, 0, 0, 0, 0, 0, 0, 0, 0, 0, 0, 0, 0, 0, 0, 0, 0, 0, 0, 0, 0, 0, 0, 0, 0, 0, 0, 0], [41, 46, 34, 31, 31, 34, 45, 35, 32, 31, 39, 32, 35, 48, 35, 50, 39, 42, 31, 42, 38, 44, 40, 32, 37, 39, 48, 30, 30, 39], [37, 34, 40, 48, 48, 41, 49, 37, 40, 33, 50, 30, 34, 50, 47, 50, 43, 41, 39, 46, 36, 38, 31, 46, 36, 31, 38, 40, 38, 46], [49, 32, 32, 36, 44, 48, 47, 30, 36, 41, 46, 37, 31, 31, 34, 40, 45, 34, 34, 43, 35, 42, 32, 45, 37, 35, 31, 31, 36, 50], [45, 38, 48, 40, 41, 33, 41, 33, 47, 39, 39, 37, 33, 50, 45, 49, 42, 43, 42, 37, 48, 48, 47, 44, 31, 38, 37, 40, 47, 45], [30, 50, 34, 42, 49, 32, 46, 43, 36, 32, 48, 49, 43, 44, 30, 34, 45, 33, 37, 40, 46, 39, 42, 36, 34, 31, 30, 35, 50, 43], [38, 36, 36, 49, 45, 41, 32, 45, 34, 49, 47, 43, 42, 36, 44, 48, 40, 32, 42, 31, 43, 48, 36, 45, 40, 31, 50, 39, 49, 49], [37, 49, 39, 40, 45, 42, 48, 36, 50, 36, 34, 41, 32, 38, 38, 43, 34, 49, 46, 47, 34, 35, 39, 44, 41, 37, 42, 36, 38, 32]], [[0, 0, 0, 0, 0, 0, 0, 0, 0, 0, 0, 0, 0, 0, 0, 0, 0, 0, 0, 0, 0, 0, 0, 0, 0, 0, 0, 0, 0, 0], [0, 0, 0, 0, 0, 0, 0, 0, 0, 0, 0, 0, 0, 0, 0, 0, 0, 0, 0, 0, 0, 0, 0, 0, 0, 0, 0, 0, 0, 0], [0, 0, 0, 0, 0, 0, 0, 0, 0, 0, 0, 0, 0, 0, 0, 0, 0, 0, 0, 0, 0, 0, 0, 0, 0, 0, 0, 0, 0, 0], [0, 0, 0, 0, 0, 0, 0, 0, 0, 0, 0, 0, 0, 0, 0, 0, 0, 0, 0, 0, 0, 0, 0, 0, 0, 0, 0, 0, 0, 0], [48, 49, 34, 36, 49, 37, 46, 30, 34, 32, 44, 42, 31, 45, 40, 42, 43, 48, 45, 36, 32, 37, 39, 47, 37, 38, 39, 39, 31, 45], [46, 31, 42, 43, 41, 45, 37, 41, 32, 46, 45, 31, 36, 39, 31, 36, 39, 34, 34, 36, 50, 36, 47, 33, 37, 44, 39, 30, 50, 32], [30, 32, 31, 37, 49, 33, 35, 39, 39, 45, 48, 30, 47, 36, 45, 34, 30, 45, 38, 46, 45, 47, 33, 47, 33, 38, 31, 38, 34, 38], [37, 48, 32, 41, 49, 42, 48, 30, 48, 40, 33, 37, 34, 50, 48, 34, 33, 30, 31, 47, 45, 45, 34, 48, 46, 46, 34, 39, 39, 41], [31, 35, 32, 35, 50, 49, 45, 40, 43, 42, 46, 32, 34, 35, 36, 36, 45, 49, 47, 30, 49, 46, 33, 48, 47, 49, 44, 42, 34, 33], [30, 34, 44, 44, 37, 38, 31, 36, 34, 40, 39, 42, 39, 48, 43, 44, 45, 34, 42, 33, 36, 44, 50, 37, 48, 30, 36, 37, 32, 43]], [[0, 0, 0, 0, 0, 0, 0, 0, 0, 0, 0, 0, 0, 0, 0, 0, 0, 0, 0, 0, 0, 0, 0, 0, 0, 0, 0, 0, 0, 0], [0, 0, 0, 0, 0, 0, 0, 0, 0, 0, 0, 0, 0, 0, 0, 0, 0, 0, 0, 0, 0, 0, 0, 0, 0, 0, 0, 0, 0, 0], [0, 0, 0, 0, 0, 0, 0, 0, 0, 0, 0, 0, 0, 0, 0, 0, 0, 0, 0, 0, 0, 0, 0, 0, 0, 0, 0, 0, 0, 0], [0, 0, 0, 0, 0, 0, 0, 0, 0, 0, 0, 0, 0, 0, 0, 0, 0, 0, 0, 0, 0, 0, 0, 0, 0, 0, 0, 0, 0, 0], [0, 0, 0, 0, 0, 0, 0, 0, 0, 0, 0, 0, 0, 0, 0, 0, 0, 0, 0, 0, 0, 0, 0, 0, 0, 0, 0, 0, 0, 0], [33, 46, 45, 32, 48, 45, 40, 45, 47, 34, 36, 47, 37, 32, 39, 43, 36, 37, 49, 40, 47, 33, 45, 44, 37, 43, 42, 33, 42, 41], [45, 32, 38, 41, 49, 36, 42, 43, 45, 37, 40, 31, 31, 41, 39, 44, 38, 45, 41, 44, 37, 33, 42, 39, 36, 41, 46, 36, 42, 49], [33, 50, 37, 42, 31, 48, 45, 47, 37, 36, 35, 46, 39, 50, 47, 36, 34, 33, 45, 41, 36, 40, 33, 38, 39, 39, 50, 37, 37, 40], [30, 50, 40, 42, 34, 34, 40, 49, 35, 31, 49, 48, 36, 43, 36, 35, 39, 49, 34, 43, 33, 36, 37, 30, 44, 42, 36, 30, 37, 31], [30, 46, 38, 47, 42, 33, 36, 49, 30, 45, 31, 47, 48, 31, 36, 47, 47, 49, 47, 41, 49, 49, 35, 43, 38, 41, 35, 32, 47, 44]], [[0, 0, 0, 0, 0, 0, 0, 0, 0, 0, 0, 0, 0, 0, 0, 0, 0, 0, 0, 0, 0, 0, 0, 0, 0, 0, 0, 0, 0, 0], [0, 0, 0, 0, 0, 0, 0, 0, 0, 0, 0, 0, 0, 0, 0, 0, 0, 0, 0, 0, 0, 0, 0, 0, 0, 0, 0, 0, 0, 0], [0, 0, 0, 0, 0, 0, 0, 0, 0, 0, 0, 0, 0, 0, 0, 0, 0, 0, 0, 0, 0, 0, 0, 0, 0, 0, 0, 0, 0, 0], [0, 0, 0, 0, 0, 0, 0, 0, 0, 0, 0, 0, 0, 0, 0, 0, 0, 0, 0, 0, 0, 0, 0, 0, 0, 0, 0, 0, 0, 0], [0, 0, 0, 0, 0, 0, 0, 0, 0, 0, 0, 0, 0, 0, 0, 0, 0, 0, 0, 0, 0, 0, 0, 0, 0, 0, 0, 0, 0, 0], [0, 0, 0, 0, 0, 0, 0, 0, 0, 0, 0, 0, 0, 0, 0, 0, 0, 0, 0, 0, 0, 0, 0, 0, 0, 0, 0, 0, 0, 0], [48, 31, 50, 32, 36, 49, 40, 50, 40, 40, 31, 44, 44, 36, 46, 32, 35, 30, 35, 40, 50, 48, 41, 46, 36, 47, 48, 42, 50, 41], [48, 49, 50, 50, 33, 30, 44, 41, 30, 34, 30, 46, 31, 47, 30, 50, 48, 49, 33, 44, 34, 42, 44, 39, 36, 49, 41, 47, 37, 47], [40, 43, 44, 34, 36, 50, 34, 45, 32, 37, 36, 44, 42, 37, 41, 41, 50, 42, 43, 35, 35, 38, 30, 32, 40, 47, 48, 32, 48, 32], [38, 34, 41, 32, 47, 39, 38, 34, 43, 50, 41, 45, 30, 34, 35, 46, 34, 32, 50, 37, 47, 34, 39, 34, 45, 32, 39, 43, 48, 46]], [[0, 0, 0, 0, 0, 0, 0, 0, 0, 0, 0, 0, 0, 0, 0, 0, 0, 0, 0, 0, 0, 0, 0, 0, 0, 0, 0, 0, 0, 0], [0, 0, 0, 0, 0, 0, 0, 0, 0, 0, 0, 0, 0, 0, 0, 0, 0, 0, 0, 0, 0, 0, 0, 0, 0, 0, 0, 0, 0, 0], [0, 0, 0, 0, 0, 0, 0, 0, 0, 0, 0, 0, 0, 0, 0, 0, 0, 0, 0, 0, 0, 0, 0, 0, 0, 0, 0, 0, 0, 0], [0, 0, 0, 0, 0, 0, 0, 0, 0, 0, 0, 0, 0, 0, 0, 0, 0, 0, 0, 0, 0, 0, 0, 0, 0, 0, 0, 0, 0, 0], [0, 0, 0, 0, 0, 0, 0, 0, 0, 0, 0, 0, 0, 0, 0, 0, 0, 0, 0, 0, 0, 0, 0, 0, 0, 0, 0, 0, 0, 0], [0, 0, 0, 0, 0, 0, 0, 0, 0, 0, 0, 0, 0, 0, 0, 0, 0, 0, 0, 0, 0, 0, 0, 0, 0, 0, 0, 0, 0, 0], [0, 0, 0, 0, 0, 0, 0, 0, 0, 0, 0, 0, 0, 0, 0, 0, 0, 0, 0, 0, 0, 0, 0, 0, 0, 0, 0, 0, 0, 0], [35, 44, 46, 30, 36, 49, 33, 31, 36, 35, 37, 33, 49, 31, 33, 37, 37, 46, 34, 43, 32, 36, 33, 44, 45, 38, 39, 45, 35, 41], [50, 41, 47, 36, 35, 35, 37, 34, 38, 31, 36, 43, 50, 38, 33, 45, 34, 48, 48, 45, 44, 32, 35, 30, 39, 30, 43, 42, 32, 47], [40, 41, 46, 42, 40, 44, 38, 33, 39, 32, 47, 43, 42, 39, 36, 32, 49, 38, 30, 47, 30, 45, 34, 30, 39, 44, 48, 39, 41, 36]], [[0, 0, 0, 0, 0, 0, 0, 0, 0, 0, 0, 0, 0, 0, 0, 0, 0, 0, 0, 0, 0, 0, 0, 0, 0, 0, 0, 0, 0, 0], [0, 0, 0, 0, 0, 0, 0, 0, 0, 0, 0, 0, 0, 0, 0, 0, 0, 0, 0, 0, 0, 0, 0, 0, 0, 0, 0, 0, 0, 0], [0, 0, 0, 0, 0, 0, 0, 0, 0, 0, 0, 0, 0, 0, 0, 0, 0, 0, 0, 0, 0, 0, 0, 0, 0, 0, 0, 0, 0, 0], [0, 0, 0, 0, 0, 0, 0, 0, 0, 0, 0, 0, 0, 0, 0, 0, 0, 0, 0, 0, 0, 0, 0, 0, 0, 0, 0, 0, 0, 0], [0, 0, 0, 0, 0, 0, 0, 0, 0, 0, 0, 0, 0, 0, 0, 0, 0, 0, 0, 0, 0, 0, 0, 0, 0, 0, 0, 0, 0, 0], [0, 0, 0, 0, 0, 0, 0, 0, 0, 0, 0, 0, 0, 0, 0, 0, 0, 0, 0, 0, 0, 0, 0, 0, 0, 0, 0, 0, 0, 0], [0, 0, 0, 0, 0, 0, 0, 0, 0, 0, 0, 0, 0, 0, 0, 0, 0, 0, 0, 0, 0, 0, 0, 0, 0, 0, 0, 0, 0, 0], [0, 0, 0, 0, 0, 0, 0, 0, 0, 0, 0, 0, 0, 0, 0, 0, 0, 0, 0, 0, 0, 0, 0, 0, 0, 0, 0, 0, 0, 0], [47, 44, 35, 39, 40, 40, 40, 43, 32, 30, 31, 46, 40, 48, 35, 31, 30, 32, 45, 40, 40, 34, 37, 46, 44, 49, 31, 35, 50, 37], [38, 34, 45, 45, 38, 36, 40, 48, 48, 30, 32, 45, 35, 34, 33, 50, 48, 40, 31, 40, 41, 39, 34, 46, 38, 42, 39, 36, 49, 32]], [[0, 0, 0, 0, 0, 0, 0, 0, 0, 0, 0, 0, 0, 0, 0, 0, 0, 0, 0, 0, 0, 0, 0, 0, 0, 0, 0, 0, 0, 0], [0, 0, 0, 0, 0, 0, 0, 0, 0, 0, 0, 0, 0, 0, 0, 0, 0, 0, 0, 0, 0, 0, 0, 0, 0, 0, 0, 0, 0, 0], [0, 0, 0, 0, 0, 0, 0, 0, 0, 0, 0, 0, 0, 0, 0, 0, 0, 0, 0, 0, 0, 0, 0, 0, 0, 0, 0, 0, 0, 0], [0, 0, 0, 0, 0, 0, 0, 0, 0, 0, 0, 0, 0, 0, 0, 0, 0, 0, 0, 0, 0, 0, 0, 0, 0, 0, 0, 0, 0, 0], [0, 0, 0, 0, 0, 0, 0, 0, 0, 0, 0, 0, 0, 0, 0, 0, 0, 0, 0, 0, 0, 0, 0, 0, 0, 0, 0, 0, 0, 0], [0, 0, 0, 0, 0, 0, 0, 0, 0, 0, 0, 0, 0, 0, 0, 0, 0, 0, 0, 0, 0, 0, 0, 0, 0, 0, 0, 0, 0, 0], [0, 0, 0, 0, 0, 0, 0, 0, 0, 0, 0, 0, 0, 0, 0, 0, 0, 0, 0, 0, 0, 0, 0, 0, 0, 0, 0, 0, 0, 0], [0, 0, 0, 0, 0, 0, 0, 0, 0, 0, 0, 0, 0, 0, 0, 0, 0, 0, 0, 0, 0, 0, 0, 0, 0, 0, 0, 0, 0, 0], [0, 0, 0, 0, 0, 0, 0, 0, 0, 0, 0, 0, 0, 0, 0, 0, 0, 0, 0, 0, 0, 0, 0, 0, 0, 0, 0, 0, 0, 0], [47, 31, 40, 39, 45, 32, 35, 41, 36, 45, 50, 31, 40, 42, 42, 39, 30, 48, 35, 37, 45, 41, 44, 50, 44, 46, 48, 50, 50, 47]], [[0, 0, 0, 0, 0, 0, 0, 0, 0, 0, 0, 0, 0, 0, 0, 0, 0, 0, 0, 0, 0, 0, 0, 0, 0, 0, 0, 0, 0, 0], [0, 0, 0, 0, 0, 0, 0, 0, 0, 0, 0, 0, 0, 0, 0, 0, 0, 0, 0, 0, 0, 0, 0, 0, 0, 0, 0, 0, 0, 0], [0, 0, 0, 0, 0, 0, 0, 0, 0, 0, 0, 0, 0, 0, 0, 0, 0, 0, 0, 0, 0, 0, 0, 0, 0, 0, 0, 0, 0, 0], [0, 0, 0, 0, 0, 0, 0, 0, 0, 0, 0, 0, 0, 0, 0, 0, 0, 0, 0, 0, 0, 0, 0, 0, 0, 0, 0, 0, 0, 0], [0, 0, 0, 0, 0, 0, 0, 0, 0, 0, 0, 0, 0, 0, 0, 0, 0, 0, 0, 0, 0, 0, 0, 0, 0, 0, 0, 0, 0, 0], [0, 0, 0, 0, 0, 0, 0, 0, 0, 0, 0, 0, 0, 0, 0, 0, 0, 0, 0, 0, 0, 0, 0, 0, 0, 0, 0, 0, 0, 0], [0, 0, 0, 0, 0, 0, 0, 0, 0, 0, 0, 0, 0, 0, 0, 0, 0, 0, 0, 0, 0, 0, 0, 0, 0, 0, 0, 0, 0, 0], [0, 0, 0, 0, 0, 0, 0, 0, 0, 0, 0, 0, 0, 0, 0, 0, 0, 0, 0, 0, 0, 0, 0, 0, 0, 0, 0, 0, 0, 0], [0, 0, 0, 0, 0, 0, 0, 0, 0, 0, 0, 0, 0, 0, 0, 0, 0, 0, 0, 0, 0, 0, 0, 0, 0, 0, 0, 0, 0, 0], [0, 0, 0, 0, 0, 0, 0, 0, 0, 0, 0, 0, 0, 0, 0, 0, 0, 0, 0, 0, 0, 0, 0, 0, 0, 0, 0, 0, 0, 0]]];

q = [[[5], [25], [21], [11], [25], [10], [15], [17], [10], [9], [10], [23], [13], [13], [23], [14], [24], [17], [16], [21], [22], [23], [7], [25], [17], [17], [24], [24], [7], [8]], [[25], [14], [19], [21], [22], [11], [19], [14], [12], [22], [9], [10], [7], [12], [6], [9], [5], [23], [24], [16], [8], [15], [17], [22], [20], [6], [18], [15], [7], [7]], [[12], [14], [15], [25], [18], [25], [6], [7], [10], [17], [12], [10], [12], [19], [10], [12], [12], [10], [7], [21], [5], [5], [19], [21], [12], [6], [14], [6], [19], [24]], [[24], [11], [18], [14], [9], [13], [18], [14], [11], [12], [9], [14], [12], [18], [8], [19], [24], [13], [7], [17], [22], [20], [24], [15], [12], [12], [20], [21], [6], [22]], [[15], [9], [19], [9], [13], [19], [25], [16], [14], [17], [6], [9], [15], [12], [20], [21], [9], [17], [19], [14], [23], [19], [25], [22], [13], [14], [14], [23], [15], [23]], [[25], [22], [12], [6], [11], [25], [15], [13], [13], [9], [9], [13], [19], [10], [18], [23], [14], [8], [9], [19], [15], [21], [10], [5], [23], [17], [22], [11], [17], [5]], [[20], [10], [18], [7], [12], [14], [12], [18], [8], [25], [25], [14], [16], [25], [23], [5], [22], [22], [7], [24], [12], [13], [5], [8], [12], [25], [24], [19], [15], [14]], [[15], [18], [21], [17], [7], [5], [10], [10], [25], [13], [23], [10], [7], [7], [20], [18], [21], [12], [24], [10], [7], [25], [20], [13], [19], [18], [16], [7], [9], [6]], [[20], [21], [9], [22], [18], [7], [5], [21], [15], [13], [8], [23], [21], [21], [17], [11], [24], [11], [12], [15], [19], [8], [7], [8], [18], [22], [18], [12], [18], [17]], [[14], [6], [10], [23], [12], [23], [12], [9], [20], [25], [24], [23], [20], [12], [25], [17], [18], [20], [18], [25], [17], [20], [19], [12], [5], [6], [10], [5], [7], [15]]];
Q = [[40], [30], [32], [37], [39], [35], [38], [34], [36], [37]];
